30
0   76   78
1   76   77
2   76   77
3   77   77
4   40   39
5   38   38
6   39   38
7   39   39
8   21   19
9   21   20
10   20   21
11   19   21
12   10   11
13   10   10
14   10   12
15   12   10
16   6   7
17   5   6
18   7   5
19   7   5
20   2   2
21   3   1
22   2   1
23   3   1
24   2   2
25   1   2
26   3   3
27   1   1
28   3   3
29   2   1
150
